nTests=10;
nMachines=3;
nResources=1;
durations=[2, 4, 3, 4, 3, 2, 1, 2, 3, 5];
machinesAvailable=[{1, 2, 3},{1, 2, 3},{1, 2, 3},{1, 2, 3},{1, 2, 3},{1, 2, 3},{1},{2},{3},{1, 3}];
resourcesRequired=[{},{1},{1},{1},{},{},{},{},{},{}];